253642
27,75,82,16,32,8,33,17,71,54,46,45,67,76,37,13,21,66,5,23,25,47,49,61,15,56,51,52,39,6,30,59,42,43,12,55,78,69,28,9,58,40,44,31,4,50,53,48,20,14,29,10,1,64,26,62,70,36,80,73,18,65,63,41,68,7,79,22,19,24,77,83,38,57,11,74,2,34,3,81,60,35,72